p tw 20 44
1 2
1 12
1 18
1 3
1 4
1 5
1 6
1 8
1 10
2 11
2 15
2 16
2 20
2 3
2 5
18 19
3 12
3 13
3 14
3 4
3 5
3 7
3 9
4 12
4 14
4 9
5 12
5 13
6 17
6 19
6 7
6 9
7 12
7 9
7 10
8 14
8 15
8 16
8 17
8 18
8 19
8 9
10 13
10 17
